c
c Renamed file of pm1.cnf 
c Variables are renamed according to left2right.ord 
c
c Date: Thu Apr 29 14:50:08 PDT 2004 by (jinbo)
c Host: Linux solution 2.4.18-4smp #1 SMP Thu May 2 18:32:34 EDT 2002 i686 unknown
c
c Copyright (c) 2001 Fadi A. Aloul.
c
p cnf 105 245
-67 -68 0
68 67 0
-68 69 0
-69 68 0
-73 -74 0
74 73 0
-74 75 0
-75 74 0
-94 -95 0
95 94 0
-95 96 0
-96 95 0
-53 -71 0
71 53 0
-71 72 0
-28 -70 0
70 28 0
-70 72 0
-77 -76 0
76 77 0
-76 72 0
-72 71 70 76 0
-103 -104 0
104 103 0
-104 105 0
-105 104 0
-99 -98 0
98 99 0
-98 97 0
-97 98 0
-35 -38 0
-37 -38 0
38 35 37 0
-38 39 0
-34 -36 0
-37 -36 0
36 34 37 0
-36 39 0
-51 -40 0
-37 -40 0
40 51 37 0
-40 39 0
-39 38 36 40 0
-102 -101 0
101 102 0
-101 100 0
-100 101 0
-15 -8 0
8 15 0
-8 2 0
4 -1 0
1 -4 0
-1 2 0
-45 -9 0
9 45 0
-9 2 0
-2 8 1 9 0
60 -58 0
-55 -58 0
58 -60 55 0
-58 57 0
-53 -56 0
-55 -56 0
56 53 55 0
-56 57 0
-57 58 56 0
60 -61 0
53 -61 0
-10 -61 0
61 -60 -53 10 0
-61 64 0
-64 61 0
-42 -25 0
53 -25 0
-22 -25 0
25 42 -53 22 0
-25 23 0
-26 -24 0
53 -24 0
-22 -24 0
24 26 -53 22 0
-24 23 0
-23 25 24 0
60 -62 0
53 -62 0
-20 -62 0
62 -60 -53 20 0
-62 65 0
-65 62 0
-32 -46 0
53 -46 0
46 32 -53 0
-46 45 0
-35 -47 0
53 -47 0
47 35 -53 0
-47 45 0
-49 -50 0
53 -50 0
50 49 -53 0
-50 45 0
-45 46 47 50 0
60 -48 0
28 -48 0
31 -48 0
48 -60 -28 -31 0
-48 49 0
-49 48 0
4 -6 0
6 -4 0
-6 55 0
-15 -16 0
16 15 0
-16 55 0
-53 -54 0
60 -54 0
54 53 -60 0
-54 55 0
-55 6 16 54 0
4 -7 0
7 -4 0
-7 10 0
-12 -11 0
11 12 0
-11 10 0
-10 7 11 0
-35 -19 0
28 -19 0
15 -19 0
19 35 -28 -15 0
-19 12 0
-32 -18 0
28 -18 0
15 -18 0
18 32 -28 -15 0
-18 12 0
-31 -17 0
28 -17 0
15 -17 0
17 31 -28 -15 0
-17 12 0
-12 19 18 17 0
-28 -27 0
27 28 0
-27 26 0
-60 -44 0
44 60 0
-44 26 0
35 -30 0
32 -30 0
31 -30 0
30 -35 -32 -31 0
-30 26 0
-26 27 44 30 0
4 -3 0
3 -4 0
-3 22 0
-15 -14 0
14 15 0
-14 22 0
-42 -43 0
60 -43 0
43 42 -60 0
-43 22 0
-22 3 14 43 0
4 -5 0
5 -4 0
-5 20 0
28 -21 0
21 -28 0
-21 20 0
-15 -13 0
13 15 0
-13 20 0
-20 5 21 13 0
-60 -63 0
-53 -63 0
-42 -63 0
63 60 53 42 0
-63 67 0
-67 63 0
60 -66 0
-53 -66 0
66 -60 53 0
-66 73 0
-73 66 0
-83 -84 0
84 83 0
-84 85 0
-81 -82 0
82 81 0
-82 85 0
-93 -92 0
92 93 0
-92 85 0
-85 84 82 92 0
60 -86 0
53 -86 0
-85 -86 0
86 -60 -53 85 0
-86 94 0
-94 86 0
28 -91 0
90 -91 0
89 -91 0
91 -28 -90 -89 0
-91 93 0
-93 91 0
-83 -79 0
60 -79 0
79 83 -60 0
-79 77 0
-81 -80 0
60 -80 0
80 81 -60 0
-80 77 0
-87 -78 0
60 -78 0
78 87 -60 0
-78 77 0
-77 79 80 78 0
90 -88 0
89 -88 0
88 -90 -89 0
-88 87 0
-87 88 0
31 -33 0
32 -33 0
33 -31 -32 0
-33 34 0
-34 33 0
-60 -59 0
59 60 0
-59 51 0
53 -52 0
52 -53 0
-52 51 0
-51 59 52 0
-28 -29 0
29 28 0
-29 37 0
-42 -41 0
41 42 0
-41 37 0
-37 29 41 0
